/*********************************************
 * OPL 12.8.0.0 Data
 * Author: joanpratsicart
 * Creation Date: May 2, 2019 at 6:46:45 PM
 *********************************************/
 
wr = 65;
providers = 8;

cost_worker = [100 200 150 275 120 310 412 250];
available_workers = [16 12 6 20 16 10 6 40];
cost_contract = [1000 1500 2300 1200 3000 1200 800 1000];
country = [1 1 3 4 1 6 7 6];
cost_1 = 5;
cost_2 = 7;
cost_3 = 500;
